Route #1: 1 13 48 5 48 38 16 45 46 34 16 48 19 48 18 48 1 
Route #2: 1 33 28 7 15 14 42 20 43 20 14 26 15 24 25 24 8 24 49 28 1 
Route #3: 1 28 2 23 29 36 21 36 37 36 4 29 32 9 27 9 28 1 
Route #4: 1 39 6 50 11 50 31 35 22 17 3 17 30 17 51 10 39 12 47 1 
Cost 643.0
